(set-logic QF_S)
(declare-fun T3_2 () String)
(declare-fun T0_4 () String)
(declare-fun T4_2 () String)
(declare-fun var_0xINPUT_2 () String)
(declare-fun T4_4 () String)
(declare-fun T3_4 () String)
(declare-fun T0_2 () String)
(declare-fun T2_2 () String)
(declare-fun T2_4 () String)
(declare-fun T1_4 () String)
(declare-fun T5_2 () String)
(declare-fun T5_4 () String)
(declare-fun T1_2 () String)
(declare-fun PCTEMP_LHS_1 () String)
(assert (and (= var_0xINPUT_2 (concat T0_2 T1_2)) (= T1_2 (concat T2_2 T3_2)) (not (in T0_2 /=/)) (= T4_2 (concat T5_2 T3_2)) (= PCTEMP_LHS_1 (concat T0_2 T4_2)) (= T5_2 "_") (= T2_2 "=") (= PCTEMP_LHS_1 (concat T0_4 T1_4)) (= (len T0_4) 0) (= T1_4 (concat T2_4 T3_4)) (= T2_4 (concat T4_4 T5_4)) (= T5_4 "_") (not (in T4_4 /_/)) (>= (len T4_4) 5) (<= (len T4_4) 5)))
(check-sat var_0xINPUT_2)